c Reduced graph for GEOM70b_1 generated by Cyril Grelier
p edge 67 471
e 1 2
e 1 3
e 1 4
e 1 5
e 1 6
e 1 7
e 1 8
e 1 9
e 1 10
e 1 11
e 1 12
e 1 14
e 1 15
e 1 16
e 1 18
e 1 21
e 1 22
e 1 23
e 1 25
e 1 30
e 1 31
e 1 36
e 1 40
e 1 41
e 2 6
e 2 7
e 2 9
e 2 10
e 2 11
e 2 12
e 2 13
e 2 15
e 2 16
e 2 18
e 2 20
e 2 21
e 2 26
e 2 28
e 2 32
e 2 33
e 2 37
e 2 38
e 2 39
e 2 48
e 3 4
e 3 5
e 3 6
e 3 7
e 3 8
e 3 14
e 3 22
e 3 23
e 3 25
e 3 27
e 3 30
e 3 31
e 3 36
e 3 43
e 3 45
e 3 49
e 3 56
e 3 57
e 3 61
e 4 5
e 4 6
e 4 7
e 4 8
e 4 11
e 4 14
e 4 21
e 4 22
e 4 23
e 4 25
e 4 27
e 4 30
e 4 31
e 4 36
e 4 40
e 4 41
e 4 43
e 4 45
e 5 6
e 5 14
e 5 22
e 5 23
e 5 25
e 5 27
e 5 30
e 5 31
e 5 36
e 5 40
e 5 41
e 5 43
e 5 45
e 5 49
e 5 56
e 5 57
e 5 61
e 6 7
e 6 8
e 6 9
e 6 11
e 6 12
e 6 14
e 6 15
e 6 17
e 6 21
e 6 22
e 6 23
e 6 25
e 6 30
e 6 31
e 6 36
e 7 8
e 7 9
e 7 10
e 7 11
e 7 12
e 7 13
e 7 14
e 7 15
e 7 16
e 7 17
e 7 18
e 7 19
e 7 21
e 7 22
e 7 25
e 8 9
e 8 11
e 8 12
e 8 15
e 8 17
e 8 19
e 8 21
e 8 22
e 8 24
e 8 25
e 8 34
e 8 36
e 8 42
e 8 57
e 9 10
e 9 11
e 9 12
e 9 13
e 9 15
e 9 16
e 9 18
e 9 20
e 9 21
e 9 28
e 9 29
e 9 35
e 9 39
e 9 44
e 10 11
e 10 12
e 10 13
e 10 15
e 10 16
e 10 18
e 10 20
e 10 21
e 10 26
e 10 28
e 10 32
e 10 33
e 10 37
e 10 39
e 10 48
e 11 12
e 11 13
e 11 14
e 11 15
e 11 16
e 11 17
e 11 18
e 11 19
e 11 20
e 11 21
e 11 28
e 12 13
e 12 15
e 12 17
e 12 19
e 12 21
e 12 24
e 12 28
e 12 29
e 12 35
e 12 42
e 12 44
e 13 15
e 13 16
e 13 18
e 13 20
e 13 26
e 13 32
e 13 33
e 13 37
e 13 38
e 13 39
e 13 48
e 13 50
e 13 62
e 14 22
e 14 23
e 14 25
e 14 27
e 14 30
e 14 31
e 14 40
e 14 41
e 14 43
e 14 45
e 14 49
e 15 16
e 15 18
e 15 20
e 15 21
e 15 28
e 15 29
e 15 35
e 15 39
e 16 18
e 16 20
e 16 26
e 16 32
e 16 33
e 16 37
e 16 38
e 16 40
e 16 48
e 16 50
e 17 19
e 17 21
e 17 22
e 17 24
e 17 25
e 17 34
e 17 36
e 17 42
e 17 51
e 17 53
e 17 54
e 17 58
e 17 59
e 18 20
e 18 26
e 18 32
e 18 33
e 18 37
e 18 38
e 18 40
e 18 48
e 18 50
e 19 21
e 19 24
e 19 29
e 19 34
e 19 42
e 19 44
e 19 46
e 19 47
e 19 51
e 19 52
e 19 53
e 19 58
e 19 59
e 20 26
e 20 32
e 20 33
e 20 37
e 20 38
e 20 39
e 20 48
e 20 50
e 20 62
e 21 24
e 21 28
e 21 29
e 21 42
e 22 23
e 22 25
e 22 27
e 22 34
e 22 36
e 22 42
e 22 54
e 22 57
e 23 25
e 23 27
e 23 36
e 23 45
e 23 49
e 23 54
e 23 56
e 23 57
e 23 61
e 24 29
e 24 34
e 24 42
e 24 46
e 24 47
e 24 51
e 24 52
e 24 53
e 24 54
e 24 58
e 24 59
e 25 27
e 25 34
e 25 36
e 25 54
e 25 57
e 26 30
e 26 31
e 26 32
e 26 33
e 26 37
e 26 38
e 26 40
e 26 41
e 26 50
e 27 31
e 27 36
e 27 43
e 27 45
e 27 49
e 27 56
e 27 57
e 27 61
e 28 29
e 28 35
e 28 39
e 28 44
e 28 46
e 28 47
e 28 55
e 28 63
e 29 35
e 29 44
e 29 46
e 29 47
e 29 52
e 29 55
e 29 60
e 29 65
e 30 31
e 30 38
e 30 40
e 30 41
e 30 43
e 30 45
e 30 49
e 30 56
e 31 40
e 31 41
e 31 43
e 31 45
e 31 49
e 31 56
e 32 33
e 32 37
e 32 38
e 32 39
e 32 48
e 32 50
e 32 62
e 33 37
e 33 38
e 33 40
e 33 41
e 33 50
e 33 62
e 34 36
e 34 42
e 34 51
e 34 53
e 34 54
e 34 57
e 34 58
e 34 59
e 35 39
e 35 44
e 35 46
e 35 47
e 35 55
e 35 60
e 35 63
e 35 64
e 35 66
e 36 54
e 36 57
e 37 38
e 37 48
e 37 50
e 37 62
e 38 40
e 38 41
e 38 50
e 39 48
e 39 55
e 39 64
e 39 67
e 40 41
e 40 43
e 41 43
e 41 45
e 41 49
e 42 51
e 42 53
e 42 54
e 42 58
e 42 59
e 43 45
e 43 49
e 43 56
e 43 61
e 44 46
e 44 47
e 44 52
e 44 55
e 44 60
e 44 63
e 44 65
e 45 49
e 45 56
e 45 61
e 46 47
e 46 51
e 46 52
e 46 55
e 46 60
e 46 65
e 47 51
e 47 52
e 47 53
e 47 60
e 47 65
e 48 50
e 48 62
e 48 67
e 49 56
e 49 61
e 50 62
e 51 52
e 51 53
e 51 58
e 51 59
e 52 53
e 52 58
e 52 60
e 52 65
e 53 58
e 53 59
e 54 57
e 54 59
e 55 60
e 55 63
e 55 64
e 55 66
e 56 61
e 58 59
e 60 65
e 63 64
e 63 66
e 64 66
e 64 67
e 66 67
